problems/Promedus_26_Patrick/Promedus_26.gr
p tw 614 925
101 116
114 182
17 310
17 311
17 318
17 319
1 338
1 339
27 314
27 315
27 322
41 308
27 323
6 352
8 350
6 353
8 351
5 361
5 362
28 342
28 343
51 331
51 332
29 359
26 363
29 360
26 364
18 374
34 358
76 316
18 375
34 359
87 309
87 310
4 395
4 396
78 324
48 355
67 336
48 356
67 337
77 327
87 317
77 328
87 318
73 335
73 336
19 392
19 393
13 401
89 325
13 402
89 326
101 315
71 346
71 347
101 323
38 390
38 391
44 386
44 387
116 315
2 432
2 433
116 323
54 391
54 392
97 351
97 352
7 443
70 380
7 444
70 381
107 344
107 345
139 313
139 314
91 365
91 366
139 321
139 322
60 410
227 244
23 448
60 411
9 463
23 449
9 464
120 353
120 354
58 417
45 431
58 418
148 328
45 432
148 329
95 385
95 386
170 311
170 312
102 383
72 414
102 384
72 415
170 319
170 320
33 458
39 452
50 441
66 425
82 409
121 370
129 362
33 459
39 453
50 442
66 426
82 410
121 371
129 363
169 326
16 480
169 327
226 270
16 481
46 455
46 456
35 468
90 413
35 469
90 414
10 496
122 384
125 381
10 497
103 404
122 385
125 382
103 405
11 498
11 499
131 379
131 380
42 470
42 471
141 375
168 348
141 376
168 349
111 407
111 408
147 373
147 374
65 459
156 368
65 460
69 456
156 369
196 329
69 457
196 330
188 339
188 340
52 477
52 478
113 418
194 337
53 479
113 419
194 338
40 493
53 480
40 494
128 406
128 407
100 438
151 387
100 439
151 388
162 377
183 356
146 394
162 378
183 357
146 395
137 408
137 409
201 345
205 341
213 333
201 346
205 342
213 334
56 492
133 415
199 349
56 493
133 416
150 399
199 350
150 400
185 366
3 549
24 528
25 527
185 367
3 550
24 529
25 528
219 334
132 422
219 335
132 423
155 400
140 416
155 401
92 465
140 417
92 466
110 449
86 474
110 450
86 475
32 534
32 535
57 510
64 503
21 547
57 511
64 504
21 548
49 520
49 521
55 515
55 516
138 433
138 434
186 388
186 389
265 312
154 424
265 313
154 425
74 506
178 402
74 507
178 403
106 478
59 526
106 479
265 320
59 527
265 321
14 573
123 464
14 574
123 465
117 472
191 398
117 473
191 399
212 378
80 511
212 379
237 354
15 577
80 512
166 426
237 355
245 347
15 578
22 571
126 467
166 427
245 348
22 572
126 468
31 564
31 565
36 560
135 461
36 561
135 462
225 372
225 373
94 505
94 506
127 473
85 516
127 474
208 393
85 517
173 429
208 394
173 430
130 475
130 476
267 340
267 341
37 572
108 501
181 428
37 573
108 502
181 429
187 423
234 376
286 324
187 424
234 377
286 325
303 308
12 600
161 451
303 309
12 601
161 452
62 552
152 462
62 553
152 463
47 570
81 536
285 332
308 309
47 571
81 537
171 447
285 333
88 531
134 485
171 448
303 316
309 310
88 532
134 486
238 382
303 317
175 446
238 383
310 311
175 447
293 330
311 312
293 331
312 313
105 521
109 517
136 490
105 522
109 518
136 491
313 314
142 486
75 554
142 487
314 315
75 555
210 421
210 422
316 317
192 442
192 443
223 412
224 411
232 403
317 318
223 413
224 412
232 404
241 396
318 319
241 397
274 364
274 365
319 320
320 321
30 612
222 420
282 360
30 613
222 421
282 361
321 322
61 583
93 551
61 584
93 552
164 481
288 357
302 343
322 323
164 482
288 358
302 344
279 369
279 370
324 325
231 419
116 535
231 420
325 326
43 609
116 536
43 610
256 397
326 327
98 556
256 398
98 557
327 328
289 367
63 594
289 368
328 329
63 595
329 330
330 331
104 559
331 332
104 560
332 333
236 430
149 518
236 431
333 334
149 519
297 371
297 372
334 335
335 336
177 495
177 496
336 337
68 606
83 591
144 530
203 471
68 607
83 592
144 531
203 472
215 460
337 338
215 461
249 427
163 514
242 435
249 428
338 339
145 533
163 515
242 436
145 534
235 444
339 340
235 445
340 341
118 565
341 342
118 566
197 488
342 343
197 489
343 344
344 345
182 508
301 389
84 607
182 509
301 390
345 346
79 613
84 608
96 596
79 614
96 597
189 504
346 347
189 505
347 348
246 450
198 499
246 451
348 349
112 586
143 555
198 500
112 587
143 556
349 350
350 351
351 352
217 487
299 405
217 488
252 453
299 406
352 353
252 454
268 439
353 354
263 445
268 440
209 500
233 476
240 469
263 446
354 355
99 611
209 501
233 477
240 470
273 437
99 612
158 553
273 438
355 356
158 554
230 482
230 483
356 357
115 599
115 600
357 358
119 597
207 509
250 466
119 598
207 510
250 467
358 359
206 512
176 543
206 513
359 360
176 544
264 457
360 361
124 598
264 458
124 599
361 362
202 523
362 363
202 524
160 567
165 562
363 364
153 575
160 568
165 563
153 576
275 454
364 365
275 455
294 436
296 434
294 437
296 435
365 366
366 367
367 368
368 369
220 519
369 370
220 520
370 371
180 563
371 372
180 564
304 440
304 441
372 373
373 374
174 574
167 582
174 575
374 375
167 583
193 557
193 558
375 376
269 484
376 377
257 497
269 485
179 576
257 498
377 378
179 577
190 566
190 567
378 379
276 483
379 380
157 603
276 484
157 604
221 540
380 381
216 546
221 541
216 547
261 502
381 382
261 503
172 593
382 383
172 594
383 384
159 610
278 491
384 385
159 611
278 492
184 587
385 386
184 588
211 561
243 529
204 569
211 562
243 530
386 387
195 579
204 570
195 580
387 388
388 389
254 525
389 390
254 526
258 522
258 523
390 391
259 524
391 392
259 525
392 393
248 539
393 394
248 540
281 507
281 508
295 494
394 395
295 495
395 396
260 532
260 533
396 397
397 398
307 489
239 558
253 544
307 490
398 399
239 559
253 545
399 400
287 513
200 601
287 514
400 401
200 602
266 537
401 402
266 538
402 403
403 404
228 581
404 405
228 582
272 538
272 539
405 406
406 407
407 408
229 588
408 409
229 589
277 542
409 410
277 543
410 411
214 608
214 609
218 605
255 568
411 412
218 606
255 569
283 541
283 542
412 413
413 414
251 578
414 415
251 579
415 416
416 417
417 418
247 589
247 590
418 419
419 420
227 614
420 421
421 422
422 423
423 424
424 425
300 550
305 545
271 580
300 551
305 546
425 426
271 581
426 427
306 548
306 549
427 428
428 429
244 614
429 430
430 431
431 432
432 433
262 604
262 605
433 434
284 585
434 435
280 590
284 586
280 591
435 436
436 437
437 438
438 439
439 440
440 441
298 584
291 592
298 585
441 442
291 593
290 595
442 443
290 596
443 444
444 445
445 446
446 447
292 602
292 603
447 448
448 449
449 450
450 451
451 452
452 453
453 454
454 455
455 456
456 457
457 458
458 459
459 460
460 461
461 462
462 463
463 464
464 465
465 466
466 467
467 468
468 469
469 470
470 471
471 472
472 473
473 474
474 475
475 476
476 477
477 478
478 479
479 480
480 481
481 482
482 483
483 484
484 485
485 486
486 487
487 488
488 489
489 490
490 491
491 492
492 493
493 494
494 495
495 496
496 497
497 498
498 499
499 500
500 501
501 502
502 503
503 504
504 505
505 506
506 507
507 508
508 509
509 510
510 511
511 512
512 513
513 514
514 515
515 516
516 517
517 518
518 519
519 520
520 521
521 522
522 523
523 524
524 525
525 526
526 527
527 528
528 529
529 530
530 531
531 532
532 533
533 534
534 535
535 536
536 537
537 538
538 539
539 540
540 541
541 542
542 543
543 544
544 545
545 546
546 547
547 548
548 549
549 550
550 551
551 552
552 553
553 554
554 555
555 556
556 557
557 558
558 559
559 560
560 561
561 562
562 563
563 564
564 565
565 566
566 567
567 568
568 569
569 570
570 571
571 572
572 573
573 574
574 575
575 576
576 577
577 578
578 579
579 580
580 581
581 582
582 583
583 584
584 585
585 586
586 587
587 588
588 589
589 590
590 591
591 592
592 593
593 594
594 595
595 596
596 597
597 598
598 599
599 600
600 601
601 602
602 603
603 604
604 605
605 606
606 607
607 608
608 609
609 610
610 611
611 612
612 613
613 614
