problems/Promedus_26_Patrick/Promedus_26.td
s td 313 4 614
b 1 78 324
b 2 286 324 325
b 3 89 325 326
b 4 169 326 327
b 5 77 327 328
b 6 148 328 329
b 7 196 329 330
b 8 293 330 331
b 9 51 331 332
b 10 285 332 333
b 11 213 333 334
b 12 219 334 335
b 13 73 335 336
b 14 67 336 337
b 15 194 337 338
b 16 114 182
b 17 41 308
b 18 76 316
b 19 17 310 311 318
b 20 17 311 318 319
b 21 27 314 315 322
b 22 27 315 322 323
b 23 101 116 315 323
b 24 139 313 314 321
b 25 139 314 321 322
b 26 265 312 313 320
b 27 265 313 320 321
b 28 170 311 312 319
b 29 170 312 319 320
b 30 87 309 310 317
b 31 87 310 317 318
b 32 303 309 317
b 33 303 316 317
b 34 303 308 309
b 35 227 244 614
b 36 79 613 614
b 37 30 612 613
b 38 99 611 612
b 39 159 610 611
b 40 43 609 610
b 41 214 608 609
b 42 84 607 608
b 43 68 606 607
b 44 218 605 606
b 45 262 604 605
b 46 157 603 604
b 47 292 602 603
b 48 200 601 602
b 49 12 600 601
b 50 115 599 600
b 51 124 598 599
b 52 119 597 598
b 53 96 596 597
b 54 290 595 596
b 55 63 594 595
b 56 172 593 594
b 57 291 592 593
b 58 83 591 592
b 59 280 590 591
b 60 247 589 590
b 61 229 588 589
b 62 184 587 588
b 63 112 586 587
b 64 284 585 586
b 65 298 584 585
b 66 61 583 584
b 67 167 582 583
b 68 228 581 582
b 69 271 580 581
b 70 195 579 580
b 71 251 578 579
b 72 15 577 578
b 73 179 576 577
b 74 153 575 576
b 75 174 574 575
b 76 14 573 574
b 77 37 572 573
b 78 22 571 572
b 79 47 570 571
b 80 204 569 570
b 81 255 568 569
b 82 160 567 568
b 83 190 566 567
b 84 118 565 566
b 85 31 564 565
b 86 180 563 564
b 87 165 562 563
b 88 211 561 562
b 89 36 560 561
b 90 104 559 560
b 91 239 558 559
b 92 193 557 558
b 93 98 556 557
b 94 143 555 556
b 95 75 554 555
b 96 158 553 554
b 97 62 552 553
b 98 93 551 552
b 99 300 550 551
b 100 3 549 550
b 101 306 548 549
b 102 21 547 548
b 103 216 546 547
b 104 305 545 546
b 105 253 544 545
b 106 176 543 544
b 107 277 542 543
b 108 283 541 542
b 109 221 540 541
b 110 248 539 540
b 111 272 538 539
b 112 266 537 538
b 113 81 536 537
b 114 116 535 536
b 115 32 534 535
b 116 145 533 534
b 117 260 532 533
b 118 88 531 532
b 119 144 530 531
b 120 243 529 530
b 121 24 528 529
b 122 25 527 528
b 123 59 526 527
b 124 254 525 526
b 125 259 524 525
b 126 202 523 524
b 127 258 522 523
b 128 105 521 522
b 129 49 520 521
b 130 220 519 520
b 131 149 518 519
b 132 109 517 518
b 133 85 516 517
b 134 55 515 516
b 135 163 514 515
b 136 287 513 514
b 137 206 512 513
b 138 80 511 512
b 139 57 510 511
b 140 207 509 510
b 141 182 508 509
b 142 281 507 508
b 143 74 506 507
b 144 94 505 506
b 145 189 504 505
b 146 64 503 504
b 147 261 502 503
b 148 108 501 502
b 149 209 500 501
b 150 198 499 500
b 151 11 498 499
b 152 257 497 498
b 153 10 496 497
b 154 177 495 496
b 155 295 494 495
b 156 40 493 494
b 157 56 492 493
b 158 278 491 492
b 159 136 490 491
b 160 307 489 490
b 161 197 488 489
b 162 217 487 488
b 163 142 486 487
b 164 134 485 486
b 165 269 484 485
b 166 276 483 484
b 167 230 482 483
b 168 164 481 482
b 169 16 480 481
b 170 53 479 480
b 171 106 478 479
b 172 52 477 478
b 173 233 476 477
b 174 130 475 476
b 175 86 474 475
b 176 127 473 474
b 177 117 472 473
b 178 203 471 472
b 179 42 470 471
b 180 240 469 470
b 181 35 468 469
b 182 126 467 468
b 183 250 466 467
b 184 92 465 466
b 185 123 464 465
b 186 9 463 464
b 187 152 462 463
b 188 135 461 462
b 189 215 460 461
b 190 65 459 460
b 191 33 458 459
b 192 264 457 458
b 193 69 456 457
b 194 46 455 456
b 195 275 454 455
b 196 252 453 454
b 197 39 452 453
b 198 161 451 452
b 199 246 450 451
b 200 110 449 450
b 201 23 448 449
b 202 171 447 448
b 203 175 446 447
b 204 263 445 446
b 205 235 444 445
b 206 7 443 444
b 207 192 442 443
b 208 50 441 442
b 209 304 440 441
b 210 268 439 440
b 211 100 438 439
b 212 273 437 438
b 213 294 436 437
b 214 242 435 436
b 215 296 434 435
b 216 138 433 434
b 217 2 432 433
b 218 45 431 432
b 219 236 430 431
b 220 173 429 430
b 221 181 428 429
b 222 249 427 428
b 223 166 426 427
b 224 66 425 426
b 225 154 424 425
b 226 187 423 424
b 227 132 422 423
b 228 210 421 422
b 229 222 420 421
b 230 231 419 420
b 231 113 418 419
b 232 58 417 418
b 233 140 416 417
b 234 133 415 416
b 235 72 414 415
b 236 90 413 414
b 237 223 412 413
b 238 224 411 412
b 239 60 410 411
b 240 82 409 410
b 241 137 408 409
b 242 111 407 408
b 243 128 406 407
b 244 299 405 406
b 245 103 404 405
b 246 232 403 404
b 247 178 402 403
b 248 13 401 402
b 249 155 400 401
b 250 150 399 400
b 251 191 398 399
b 252 256 397 398
b 253 241 396 397
b 254 4 395 396
b 255 146 394 395
b 256 208 393 394
b 257 19 392 393
b 258 54 391 392
b 259 38 390 391
b 260 301 389 390
b 261 186 388 389
b 262 151 387 388
b 263 44 386 387
b 264 95 385 386
b 265 122 384 385
b 266 102 383 384
b 267 238 382 383
b 268 125 381 382
b 269 70 380 381
b 270 131 379 380
b 271 212 378 379
b 272 162 377 378
b 273 234 376 377
b 274 141 375 376
b 275 18 374 375
b 276 147 373 374
b 277 225 372 373
b 278 297 371 372
b 279 121 370 371
b 280 279 369 370
b 281 156 368 369
b 282 289 367 368
b 283 185 366 367
b 284 91 365 366
b 285 274 364 365
b 286 26 363 364
b 287 129 362 363
b 288 5 361 362
b 289 282 360 361
b 290 29 359 360
b 291 34 358 359
b 292 288 357 358
b 293 183 356 357
b 294 48 355 356
b 295 237 354 355
b 296 120 353 354
b 297 6 352 353
b 298 97 351 352
b 299 8 350 351
b 300 199 349 350
b 301 168 348 349
b 302 245 347 348
b 303 71 346 347
b 304 201 345 346
b 305 107 344 345
b 306 302 343 344
b 307 28 342 343
b 308 205 341 342
b 309 267 340 341
b 310 188 339 340
b 311 1 338 339
b 312 20
b 313 226 270
1 2
1 312
1 313
2 3
3 4
4 5
5 6
6 7
7 8
8 9
9 10
10 11
11 12
12 13
13 14
14 15
15 311
16 141
17 34
18 33
19 31
19 20
20 28
21 25
21 22
22 23
23 114
24 27
24 25
26 29
26 27
28 29
30 32
30 31
32 34
32 33
35 36
36 37
37 38
38 39
39 40
40 41
41 42
42 43
43 44
44 45
45 46
46 47
47 48
48 49
49 50
50 51
51 52
52 53
53 54
54 55
55 56
56 57
57 58
58 59
59 60
60 61
61 62
62 63
63 64
64 65
65 66
66 67
67 68
68 69
69 70
70 71
71 72
72 73
73 74
74 75
75 76
76 77
77 78
78 79
79 80
80 81
81 82
82 83
83 84
84 85
85 86
86 87
87 88
88 89
89 90
90 91
91 92
92 93
93 94
94 95
95 96
96 97
97 98
98 99
99 100
100 101
101 102
102 103
103 104
104 105
105 106
106 107
107 108
108 109
109 110
110 111
111 112
112 113
113 114
114 115
115 116
116 117
117 118
118 119
119 120
120 121
121 122
122 123
123 124
124 125
125 126
126 127
127 128
128 129
129 130
130 131
131 132
132 133
133 134
134 135
135 136
136 137
137 138
138 139
139 140
140 141
141 142
142 143
143 144
144 145
145 146
146 147
147 148
148 149
149 150
150 151
151 152
152 153
153 154
154 155
155 156
156 157
157 158
158 159
159 160
160 161
161 162
162 163
163 164
164 165
165 166
166 167
167 168
168 169
169 170
170 171
171 172
172 173
173 174
174 175
175 176
176 177
177 178
178 179
179 180
180 181
181 182
182 183
183 184
184 185
185 186
186 187
187 188
188 189
189 190
190 191
191 192
192 193
193 194
194 195
195 196
196 197
197 198
198 199
199 200
200 201
201 202
202 203
203 204
204 205
205 206
206 207
207 208
208 209
209 210
210 211
211 212
212 213
213 214
214 215
215 216
216 217
217 218
218 219
219 220
220 221
221 222
222 223
223 224
224 225
225 226
226 227
227 228
228 229
229 230
230 231
231 232
232 233
233 234
234 235
235 236
236 237
237 238
238 239
239 240
240 241
241 242
242 243
243 244
244 245
245 246
246 247
247 248
248 249
249 250
250 251
251 252
252 253
253 254
254 255
255 256
256 257
257 258
258 259
259 260
260 261
261 262
262 263
263 264
264 265
265 266
266 267
267 268
268 269
269 270
270 271
271 272
272 273
273 274
274 275
275 276
276 277
277 278
278 279
279 280
280 281
281 282
282 283
283 284
284 285
285 286
286 287
287 288
288 289
289 290
290 291
291 292
292 293
293 294
294 295
295 296
296 297
297 298
298 299
299 300
300 301
301 302
302 303
303 304
304 305
305 306
306 307
307 308
308 309
309 310
310 311
